Features/ForMiniZinc/benchmark_puzzles/benchmarks5x5/75/puzzle7.dzn
S = 5;
start = [|0,0,0,0,1,0,0,4,0,0,0,0,0,17,0,0,0,8,0,0,5,0,0,25,21|
9,4,17,23,0,0,0,0,0,0,0,0,0,0,20,11,25,0,0,22,0,0,0,0,0|
0,0,0,15,0,0,21,0,0,7,0,14,0,8,0,0,0,0,4,0,0,0,0,9,0|
0,0,0,0,0,0,0,9,22,0,23,0,0,7,0,0,0,0,0,0,0,0,0,0,16|
0,3,0,0,0,0,23,13,0,0,0,0,22,0,0,0,0,0,0,0,0,0,0,0,0|
4,14,0,0,0,0,0,5,13,0,0,22,1,0,0,0,0,3,0,0,0,0,19,0,23|
0,0,0,3,0,0,0,0,0,0,0,0,0,0,0,0,0,0,0,0,0,21,0,0,0|
0,0,0,0,11,0,0,0,14,0,0,0,0,0,0,0,16,1,0,17,0,0,0,0,0|
0,0,0,0,0,0,0,0,0,0,0,0,0,0,0,0,19,0,0,0,0,0,0,0,0|
0,0,0,0,0,24,1,15,0,0,0,19,0,0,14,7,8,0,0,0,0,0,0,0,4|
0,0,0,12,0,0,0,0,2,0,8,6,0,0,0,19,0,4,0,18,24,0,23,0,0|
0,0,0,0,0,18,0,0,0,0,3,0,0,0,16,0,0,0,0,0,19,0,0,5,0|
0,0,0,0,0,0,0,0,0,0,0,9,18,20,0,0,0,0,1,0,0,0,0,0,0|
3,20,0,0,6,0,0,0,1,0,0,15,0,0,24,25,0,9,0,16,0,11,0,0,17|
0,0,18,0,0,0,0,0,15,0,0,0,0,0,0,0,0,0,0,0,16,0,0,1,0|
0,0,0,0,3,0,5,7,0,0,0,12,0,0,19,0,0,0,0,0,0,25,0,0,0|
0,0,0,0,8,16,0,0,0,0,22,0,0,15,0,0,0,0,3,0,0,9,0,0,0|
0,0,12,0,19,17,0,0,0,0,0,0,20,0,0,0,0,16,0,7,0,0,24,0,0|
0,16,0,0,0,0,0,14,0,0,1,0,7,0,0,0,0,0,0,0,0,0,0,0,19|
0,0,0,0,14,0,24,0,0,0,10,0,0,2,0,22,13,0,0,6,8,0,0,0,0|
24,13,0,0,9,12,15,0,0,0,0,0,8,22,0,0,0,0,0,0,0,0,0,21,0|
0,5,0,0,0,0,0,0,0,22,0,0,0,0,0,0,0,0,0,13,0,12,0,0,0|
0,8,0,0,0,0,0,0,0,5,15,0,0,0,0,0,0,0,22,0,0,0,0,0,0|
0,0,3,0,0,0,0,21,18,0,0,0,0,0,0,0,4,0,0,0,6,0,0,0,0|
0,0,0,0,0,0,0,0,0,0,0,20,0,0,10,8,0,0,0,11,0,0,18,0,7|];